max_width = 30;
n_blocks = 28;
width = [13, 5, 3, 5, 5, 4, 3, 11, 3, 11, 8, 5, 5, 2, 11, 5, 4, 3, 7, 2, 4, 3, 11, 8, 5, 3, 5, 4];
height = [21, 21, 21, 18, 18, 18, 18, 17, 17, 14, 14, 14, 14, 12, 7, 7, 7, 7, 6, 6, 5, 5, 4, 4, 4, 4, 3, 3];
